W=4;
H=3;

MAX_TIME=7;
MAX_TRACKS=5;

TARGET=(2,4);

TRAINS=[(1,2,RIGHT),(3,2,LEFT)];
DECOYS=[];

INIT_POS=[
(1,2,STRAIGHT_RL),
(2,2,ROCK),
(2,4,STRAIGHT_RL),
(3,2,STRAIGHT_RL),
];
TUNNEL_PAIRS=[];

GATES=[];
ACTIVATIONS=[];

DSWITCHES=[];

STATIONS=[];
